n_res = 4;
rcap = [17, 13, 63, 54];
rtype = [1, 1, 2, 2];
n_tasks = 10;
modes = [ {1, 2, 3}, {4, 5, 6}, {7, 8, 9}, {10, 11, 12}, {13, 14, 15}, {16, 17, 18}, {19, 20, 21}, {22, 23, 24}, {25, 26, 27}, {28, 29, 30} ];
succ = [ {5, 8}, {4, 9}, {6, 9, 10}, {7}, {7, 9}, {8}, {10}, {}, {}, {} ];
n_opt = 30;
dur = [2, 5, 7, 2, 2, 5, 2, 2, 7, 2, 3, 10, 1, 5, 8, 1, 2, 7, 1, 3, 6, 1, 2, 7, 5, 5, 10, 2, 7, 9];
rreq = [|  2,  0,  0,  7,  7,  0,  0,  4,  0,  0,  0,  7,  0, 10,  0,  0,  7,  6,  0,  0,  0,  5,  0,  5,  0,  6,  0,  0, 10,  4
        |  0,  5,  4,  0,  0,  1,  7,  0,  7,  8,  8,  0,  4,  0,  2,  5,  0,  0,  8,  7,  5,  0,  1,  0,  8,  0,  8,  9,  0,  0
        | 10,  9,  9,  8, 10,  6,  8, 10,  8,  7,  5,  5,  5,  5,  5,  1,  1,  1,  9,  8,  8,  8,  8,  5,  6,  6,  3,  5,  5,  4
        |  7,  7,  7,  6,  5,  4,  5,  5,  4,  7,  6,  3,  8,  6,  5, 10, 10, 10,  2,  2,  2,  7,  7,  4,  6,  5,  4,  4,  3,  3 |];
